Route 1: 23 41 67 18 168 183 164 181 26 8 45 78 151 57 150 141 11 91 14 142 66 133 90 124 173 166 84 157 58 17 89 16 174 70 113 111 82 190 2 54 182 110 109 12 87 25 153 169 148 53 86 22 126 154 171 99 163 80 115
Route 2: 77 47 116 56 199 131 34 4 74 36 192 33 137 117 162 179 62 35 177 100 94 134 104 135 170 165 3 63 158 144 49 191 75 69 196 102 145 122 107 38 138 186 7 13 159 187 156 55 96 42 85 39 175 72 52
Route 3: 60 197 184 48 71 119 143 65 61 95 128 194 167 31 92 19 118 43 152 103 88 51 15 147 132 195 29 120 81 172 59 37 9 129 160 125 185 101 5 64 127 114 24 136 50 112 30 140 1 97
Route 4: 139 73 79 161 21 32 40 6 27 193 146 44 178 200 68 123 130 198 105 93 176 98 189 83 180 28 149 106 108 188 76 121 20 155 46 10
Vehicles: 4
Distance: 5053.74
